p cnf 16 48
2 -8 -11 0
8 -12 16 0
-3 -5 -13 0
-8 9 -16 0
-2 13 14 0
9 -11 16 0
-1 9 -13 0
-2 -9 15 0
1 7 12 0
-8 -13 16 0
-3 -12 -14 0
2 10 15 0
-2 10 16 0
4 11 13 0
3 -5 9 0
7 -8 -15 0
-5 -6 13 0
3 12 -15 0
-3 -5 -14 0
-5 7 15 0
4 -5 -10 0
-1 7 -13 0
5 13 14 0
-5 -9 -12 0
10 14 15 0
-9 12 14 0
-9 11 -15 0
-7 -11 -16 0
-1 2 -4 0
8 -12 15 0
1 -8 13 0
6 7 -16 0
2 -12 -13 0
7 -11 -15 0
10 -12 15 0
1 -4 5 0
6 11 -14 0
4 -7 11 0
-3 -7 -13 0
-7 -9 -10 0
1 -7 10 0
5 11 -13 0
6 9 16 0
5 -7 10 0
2 -4 5 0
1 4 -9 0
-5 -6 -7 0
2 8 -11 0
